networks/zoo_84_1033/zoo_84_1033.txt
Number of groups: 54
Flow 1: {1 4} {4 2} {2 44} 
Flow 11: {1 36} {36 78} 
Flow 13: {2 4} {4 1} 
Flow 93: {4 31} {31 30} {30 10} {10 28} 
Flow 104: {4 36} {36 38} {38 39} {39 81} 
Flow 141: {42 8} {8 40} {40 41} 
Flow 146: {7 8} {8 50} 
Flow 149: {7 2} {2 34} {34 32} 
Flow 174: {35 19} {19 61} 
Flow 229: {10 9} {9 29} {29 71} 
Flow 238: {9 6} {6 42} {42 84} 
Flow 255: {11 35} {35 38} {38 80} 
Flow 257: {12 35} {35 36} {36 4} {4 46} 
Flow 274: {13 24} {24 16} {16 58} 
Flow 288: {14 24} {24 66} 
Flow 321: {15 24} {24 8} {8 33} 
Flow 328: {24 41} {41 83} 
Flow 341: {16 24} {24 13} {13 55} 
Flow 348: {8 2} {2 3} {3 23} {23 65} 
Flow 350: {8 31} {31 25} {25 67} 
Flow 387: {5 32} {32 38} {38 26} {26 68} 
Flow 391: {17 5} {5 6} {6 29} {29 30} {30 72} 
Flow 435: {18 35} {35 37} {37 79} 
Flow 450: {19 35} {35 77} 
Flow 459: {20 35} {35 32} {32 5} {5 17} {17 59} 
Flow 473: {21 2} {2 8} {8 24} {24 14} {14 56} 
Flow 489: {36 8} {8 7} {7 49} 
Flow 493: {22 35} {35 11} {11 53} 
Flow 502: {34 2} {2 21} {21 63} 
Flow 507: {32 27} {27 69} 
Flow 527: {3 2} {2 7} 
Flow 572: {36 35} {35 20} {20 62} 
Flow 606: {25 26} {26 38} {38 36} 
Flow 614: {26 25} {25 31} {31 8} 
Flow 637: {27 32} {32 35} {35 22} {22 64} 
Flow 643: {27 23} {23 38} {38 37} 
Flow 646: {28 10} {10 30} {30 31} {31 4} 
Flow 650: {28 9} {9 51} 
Flow 665: {30 8} {8 36} {36 1} {1 43} 
Flow 672: {29 9} {9 10} {10 52} 
Flow 696: {30 29} {29 6} {6 48} 
Flow 740: {31 38} {38 23} {23 27} 
Flow 798: {33 8} {8 30} 
Flow 806: {33 31} {31 73} 
Flow 834: {32 23} {23 3} {3 45} 
Flow 858: {6 9} {9 28} {28 70} 
Flow 913: {37 35} {35 12} {12 54} 
Flow 933: {37 38} {38 31} {31 33} {33 75} 
Flow 974: {38 32} {32 34} {34 76} 
Flow 979: {40 82} 
Flow 986: {39 38} {38 35} {35 18} {18 60} 
Flow 988: {39 23} {23 32} {32 74} 
Flow 994: {40 8} {8 42} {42 6} {6 5} {5 47} 
Flow 1006: {41 24} {24 15} {15 57} 
Time taken running everything: 73 seconds
